c Output_time 26.03.2020 18:15:32_+0100 1585242932650549235
c ** Program information **
c program_name                          "QBRG_debug"
c version                               "0.3.20"
c date                                  "25.3.2020"
c gid_id                                "673970833836058123f633335630c185360d632e"
c author                                "Oliver Kullmann"
c url                                   "https://github.com/OKullmann/oklibrary/blob/master/Satisfiability/Transformers/Generators/Random/QBRG.cpp"
c ** Machine information **
c machine_name                          "chyna-Lenovo-G50-70"
c bogomips                              3791.08
c ** Compilation information **
c compiler_version                      "g++ 7.5.0"
c compilation_date                      "Mar_26_2020 11:16:30"
c compilation_options                   "--std=c++17 -pedantic -fmax-errors=5 -Wall -Wextra -g -D_GLIBCXX_DEBUG"
c NDEBUG                                0
c OPTIMIZE                              0
c ** Parameters **
c command-line                          "./QBRG_debug" "a40 e40 a40 40" "621*1,1|2-2,1|3-3,1|4-4,1" "" "1,t" ""
c output                                "QuBlRaGe_160_621_1585242932650387049.qdimacs"
c options                               "filtered,renamed"
c num_quantifier_blocks                 4
c  quantifier_blocks                    1:a1-40 2:e41-80 3:a81-120 4:e121-160
c num_clause-blocks                     1
c  clause-blocks                        621 * {1-40,1,1/2} | {41-80,1,1/2} | {81-120,1,1/2} | {121-160,1,1/2}
c num_e-seeds                           37+2=39
c  e-seeds                              1 0 1 0 5 160 2 40 0 40 1 40 0 40 1 621 4 1 1 1 1 2 2 2 1 1 2 3 3 1 1 2 4 4 1 1 2 1 1585242932650386056
p cnf 160 621
a 1 2 3 4 5 6 7 8 9 10 11 12 13 14 15 16 17 18 19 20 21 22 23 24 25 26 27 28 29 30 31 32 33 34 35 36 37 38 39 40 0
e 41 42 43 44 45 46 47 48 49 50 51 52 53 54 55 56 57 58 59 60 61 62 63 64 65 66 67 68 69 70 71 72 73 74 75 76 77 78 79 80 0
a 81 82 83 84 85 86 87 88 89 90 91 92 93 94 95 96 97 98 99 100 101 102 103 104 105 106 107 108 109 110 111 112 113 114 115 116 117 118 119 120 0
e 121 122 123 124 125 126 127 128 129 130 131 132 133 134 135 136 137 138 139 140 141 142 143 144 145 146 147 148 149 150 151 152 153 154 155 156 157 158 159 160 0
8 -63 -83 -121 0
-20 76 -83 -121 0
5 61 -84 -121 0
13 -64 85 -121 0
22 74 -88 -121 0
11 50 -96 -121 0
-14 -42 112 -121 0
-23 -57 -117 -121 0
30 -43 91 121 0
-32 43 92 121 0
-21 45 112 121 0
16 71 -113 121 0
-18 -77 117 121 0
24 64 -119 121 0
7 -72 -96 -122 0
-39 76 -89 122 0
7 70 93 122 0
40 76 98 122 0
12 -58 110 122 0
-27 62 113 122 0
11 60 120 122 0
23 47 82 -123 0
38 -74 90 -123 0
8 -70 -94 -123 0
-6 -73 98 -123 0
-22 80 -101 -123 0
21 64 103 -123 0
-28 -73 -107 -123 0
35 -64 -112 -123 0
-39 -56 112 -123 0
-35 65 -117 -123 0
37 53 120 -123 0
20 72 -85 123 0
13 78 94 123 0
-22 56 -97 123 0
-12 -44 -102 123 0
39 62 104 123 0
-24 -56 106 123 0
7 58 -115 123 0
-19 76 116 123 0
-31 -52 117 123 0
-31 -73 88 -124 0
26 58 91 -124 0
23 68 92 -124 0
18 68 -94 -124 0
-16 -63 94 -124 0
24 -55 99 -124 0
-29 45 102 -124 0
-7 -46 -110 -124 0
-38 -57 113 -124 0
-28 72 114 -124 0
38 -57 118 -124 0
-21 72 -82 124 0
34 -55 82 124 0
-32 -74 90 124 0
13 -64 91 124 0
-35 -43 -96 124 0
-20 44 -96 124 0
24 58 107 124 0
29 73 109 124 0
-29 67 111 124 0
14 49 -93 -125 0
-40 60 96 -125 0
-20 -72 -98 -125 0
7 -72 -102 -125 0
2 42 -106 -125 0
-34 -43 117 -125 0
-7 46 117 -125 0
5 -71 -91 125 0
23 -78 -98 125 0
-7 46 102 125 0
38 49 107 125 0
-29 -52 107 125 0
11 79 -111 125 0
37 -61 -113 125 0
-19 80 -81 -126 0
27 50 -82 -126 0
6 78 -84 -126 0
13 -42 -86 -126 0
3 -50 87 -126 0
-29 75 91 -126 0
34 -63 98 -126 0
-1 -42 -113 -126 0
40 -75 -115 -126 0
-35 -79 116 -126 0
-33 -69 90 126 0
10 75 -96 126 0
-40 58 97 126 0
-14 48 98 126 0
1 -43 -99 126 0
-34 -61 -103 126 0
-5 -41 104 126 0
29 69 108 126 0
40 -56 109 126 0
-20 -68 -113 126 0
28 41 -114 126 0
22 55 117 126 0
-15 56 -118 126 0
20 -79 -91 -127 0
19 -42 93 -127 0
23 49 -95 -127 0
-17 -65 -101 -127 0
3 -64 -103 -127 0
2 -79 107 -127 0
26 -59 -111 -127 0
-39 -57 -113 -127 0
-21 52 120 -127 0
10 44 -86 127 0
16 -45 86 127 0
-3 71 -88 127 0
34 -74 93 127 0
-11 52 -94 127 0
28 70 -97 127 0
5 57 -98 127 0
-15 -57 -106 127 0
37 56 107 127 0
25 63 112 127 0
18 -55 118 127 0
-12 73 118 127 0
22 -63 81 -128 0
40 45 82 -128 0
-13 56 -93 -128 0
-7 -41 114 -128 0
-29 43 114 -128 0
-20 -52 -120 -128 0
-4 61 -86 128 0
6 -78 86 128 0
21 -65 95 128 0
-10 62 99 128 0
-29 62 100 128 0
-35 69 102 128 0
-21 -74 102 128 0
-40 -56 103 128 0
-11 77 104 128 0
-24 -64 -105 128 0
-4 -55 112 128 0
-4 46 -117 128 0
26 -41 83 -129 0
-18 -73 -85 -129 0
19 -50 -87 -129 0
-11 51 91 -129 0
-4 75 -96 -129 0
-28 -70 97 -129 0
20 -70 -99 -129 0
13 -73 -104 -129 0
24 -44 -107 -129 0
-20 -65 118 -129 0
19 49 83 129 0
-11 74 90 129 0
-12 68 -92 129 0
-2 -73 -97 129 0
-33 -74 -99 129 0
-8 52 108 129 0
8 44 116 129 0
-20 -48 83 -130 0
-21 52 -86 -130 0
-35 -55 -95 -130 0
40 -62 -99 -130 0
30 -76 113 -130 0
34 63 116 -130 0
-13 68 -117 -130 0
33 60 -83 130 0
40 79 99 130 0
13 -46 -101 130 0
-26 63 -102 130 0
-23 -49 103 130 0
-13 -42 -104 130 0
23 -79 85 -131 0
35 -51 -101 -131 0
-15 -61 -103 -131 0
2 -66 103 -131 0
-25 73 -104 -131 0
6 53 110 -131 0
23 -67 112 -131 0
-8 -44 87 131 0
33 41 91 131 0
-25 -52 91 131 0
24 55 99 131 0
12 46 -100 131 0
-35 -68 103 131 0
-14 76 -109 131 0
-39 -51 -113 131 0
10 -57 114 131 0
-19 -52 -84 -132 0
10 -51 104 -132 0
-39 -57 104 -132 0
-29 65 -111 -132 0
-8 63 82 132 0
4 -64 82 132 0
-35 78 89 132 0
-21 69 94 132 0
25 79 96 132 0
-25 -56 -100 132 0
19 -49 102 132 0
-24 -51 -104 132 0
-33 -68 -105 132 0
-2 -79 -113 132 0
-24 -68 92 -133 0
-25 45 100 -133 0
22 62 101 -133 0
17 -63 -107 -133 0
-40 73 118 -133 0
12 -56 86 133 0
-12 -46 -88 133 0
-4 57 -91 133 0
-20 -55 -103 133 0
29 44 -109 133 0
1 58 -111 133 0
32 60 114 133 0
24 -68 86 -134 0
6 51 88 -134 0
9 -53 88 -134 0
-5 -78 -89 -134 0
-4 77 90 -134 0
-25 78 97 -134 0
-3 -80 -109 -134 0
-17 -65 -115 -134 0
-28 68 120 -134 0
16 -44 82 134 0
34 -69 -88 134 0
39 49 98 134 0
35 44 99 134 0
-31 -41 -102 134 0
-29 -49 -102 134 0
-28 43 -104 134 0
-14 41 -105 134 0
-17 57 -105 134 0
27 -51 105 134 0
12 50 108 134 0
11 71 -119 134 0
26 61 98 -135 0
35 52 -102 -135 0
-19 -65 -104 -135 0
31 73 -105 -135 0
-22 -47 108 -135 0
17 76 113 -135 0
6 45 114 -135 0
-8 47 116 -135 0
1 76 81 135 0
-10 75 -82 135 0
5 -50 82 135 0
-21 61 84 135 0
-12 46 88 135 0
14 -53 90 135 0
14 -51 94 135 0
33 -79 99 135 0
11 59 -104 135 0
10 53 112 135 0
12 79 -113 135 0
34 80 -114 135 0
-11 -80 116 135 0
30 -70 -119 135 0
-27 41 120 135 0
2 -76 -83 -136 0
18 80 -86 -136 0
33 -65 87 -136 0
-34 53 -88 -136 0
-32 -52 92 -136 0
22 -45 -98 -136 0
-22 -45 102 -136 0
-8 41 -105 -136 0
9 -60 112 -136 0
27 -75 -81 136 0
-15 -78 88 136 0
3 -78 -90 136 0
3 58 -100 136 0
-35 -61 -102 136 0
7 -66 104 136 0
-40 46 -90 -137 0
-21 60 -100 -137 0
-14 -54 -117 -137 0
22 -57 -82 137 0
25 57 -84 137 0
26 -65 84 137 0
-5 78 -85 137 0
9 61 94 137 0
14 77 99 137 0
28 -44 109 137 0
13 52 -115 137 0
20 77 118 137 0
-35 59 119 137 0
-40 52 87 -138 0
13 62 88 -138 0
-22 -49 -93 -138 0
40 59 -98 -138 0
-5 -56 -85 138 0
35 68 -86 138 0
16 61 -100 138 0
32 -55 -104 138 0
30 -62 -118 138 0
-27 60 88 -139 0
-39 42 -90 -139 0
-18 -73 -90 -139 0
31 74 -90 -139 0
31 54 92 -139 0
-33 75 -100 -139 0
-24 59 -107 -139 0
-1 -75 -110 -139 0
-30 62 110 -139 0
-13 -64 -83 139 0
12 -54 88 139 0
23 43 90 139 0
13 76 -91 139 0
-1 62 93 139 0
9 75 95 139 0
-15 -62 99 139 0
37 -63 -107 139 0
19 50 -109 139 0
-38 -57 110 139 0
-21 73 95 -140 0
-16 44 105 -140 0
-23 -65 107 -140 0
7 -50 111 -140 0
-17 -54 120 -140 0
-9 57 107 140 0
3 55 -81 -141 0
16 73 90 -141 0
-13 -57 -97 -141 0
32 44 -99 -141 0
31 -71 -99 -141 0
3 62 -108 -141 0
-2 56 -112 -141 0
39 -77 117 -141 0
-15 -71 -87 141 0
-18 77 -87 141 0
8 66 99 141 0
-30 -70 -111 141 0
5 -66 -114 141 0
34 -46 -119 141 0
32 57 119 141 0
-20 -42 84 -142 0
-22 67 -91 -142 0
-33 68 99 -142 0
22 -62 109 -142 0
35 65 -116 -142 0
-21 -56 81 142 0
-31 48 93 142 0
37 -65 -100 142 0
-40 -61 103 142 0
30 59 114 142 0
19 75 -115 142 0
-20 75 -117 142 0
8 47 92 -143 0
-25 76 95 -143 0
-16 -44 96 -143 0
10 43 -100 -143 0
-9 51 -102 -143 0
2 69 -104 -143 0
-20 46 109 -143 0
25 44 -113 -143 0
-21 75 -114 -143 0
21 -49 -117 -143 0
-1 76 -86 143 0
-21 -62 -88 143 0
-24 70 -93 143 0
-23 -67 93 143 0
8 -80 93 143 0
38 44 94 143 0
-7 75 -111 143 0
31 -75 116 143 0
-26 74 92 -144 0
-37 -55 94 -144 0
31 -73 95 -144 0
2 60 99 -144 0
26 64 -102 -144 0
-36 53 105 -144 0
24 -67 -113 -144 0
-25 -72 -115 -144 0
23 63 120 -144 0
-30 -63 -83 144 0
-15 80 -86 144 0
16 -72 -106 144 0
-34 -42 111 144 0
-33 42 96 -145 0
-25 -76 98 -145 0
5 48 -106 -145 0
-4 57 107 -145 0
17 65 -113 -145 0
-19 79 113 -145 0
-22 60 -117 -145 0
27 65 118 -145 0
-6 75 86 145 0
-34 -70 -90 145 0
-40 -46 91 145 0
7 77 -102 145 0
-4 52 -107 145 0
-39 -76 115 145 0
9 68 -85 -146 0
17 -74 -89 -146 0
-26 -77 -89 -146 0
39 -58 91 -146 0
23 -52 -97 -146 0
-22 78 -103 -146 0
-36 58 105 -146 0
-39 -75 -110 -146 0
27 -48 85 146 0
22 -77 106 146 0
33 72 -119 146 0
35 49 -81 -147 0
-32 65 -87 -147 0
40 67 89 -147 0
-2 50 -93 -147 0
-31 51 -96 -147 0
10 65 98 -147 0
20 73 101 -147 0
6 61 -85 147 0
32 61 -98 147 0
7 56 -106 147 0
29 68 -112 147 0
-38 58 -118 147 0
1 64 -89 -148 0
-17 46 96 -148 0
3 -69 104 -148 0
-36 57 105 -148 0
3 74 -110 -148 0
6 42 -113 -148 0
-19 -50 113 -148 0
-16 -73 116 -148 0
-18 -51 -84 148 0
24 -51 -85 148 0
-2 53 93 148 0
22 -54 96 148 0
-40 41 -97 148 0
12 -64 -103 148 0
1 64 -111 148 0
-17 50 -112 148 0
6 -46 116 148 0
2 -53 -119 148 0
-4 79 83 -149 0
24 78 87 -149 0
9 54 -91 -149 0
18 61 -94 -149 0
29 -62 -114 -149 0
-27 48 81 149 0
14 72 -90 149 0
-38 71 -91 149 0
39 77 -95 149 0
21 75 95 149 0
-36 80 97 149 0
11 46 -105 149 0
-20 76 108 149 0
13 75 110 149 0
31 -53 113 149 0
-33 -67 113 149 0
14 73 87 -150 0
21 54 -90 -150 0
29 65 90 -150 0
28 47 92 -150 0
-14 78 -94 -150 0
3 56 -96 -150 0
21 74 104 -150 0
-40 -66 -107 -150 0
-13 51 -108 -150 0
-35 78 -109 -150 0
13 -67 113 -150 0
17 -51 116 -150 0
-35 -68 119 -150 0
-23 -79 86 150 0
-1 -70 96 150 0
-35 59 -100 150 0
-15 -56 -103 150 0
-36 -79 -104 150 0
35 -53 105 150 0
14 -45 111 150 0
-26 42 120 150 0
-20 49 -90 -151 0
-14 -68 -90 -151 0
-22 -70 91 -151 0
-7 80 91 -151 0
-24 -68 106 -151 0
-38 -51 109 -151 0
-36 -69 -111 -151 0
15 55 -120 -151 0
-32 41 -87 151 0
-32 -50 87 151 0
-34 -47 92 151 0
-28 44 -115 151 0
39 -53 115 151 0
7 71 -82 -152 0
30 -51 82 -152 0
21 57 -84 -152 0
4 71 -92 -152 0
10 56 -93 -152 0
14 68 111 -152 0
-37 -67 116 -152 0
3 70 -117 -152 0
-15 62 82 152 0
24 -76 88 152 0
15 41 -91 152 0
31 -62 92 152 0
-38 76 97 152 0
19 64 103 152 0
7 52 111 152 0
-39 -46 -115 152 0
14 -62 115 152 0
18 70 -119 152 0
36 -46 89 -153 0
-39 -58 93 -153 0
-1 61 -103 -153 0
16 73 -103 -153 0
27 56 -117 -153 0
32 -68 -81 153 0
4 -52 88 153 0
-11 -44 -92 153 0
26 -48 93 153 0
19 -48 116 153 0
22 -68 88 -154 0
38 45 -91 -154 0
13 56 -92 -154 0
-1 -70 -98 -154 0
-37 74 -98 -154 0
40 45 -106 -154 0
-29 -59 -109 -154 0
14 -47 -111 -154 0
-39 -62 -81 154 0
-14 75 86 154 0
-9 62 -93 154 0
31 -66 -104 154 0
-9 -73 -107 154 0
-32 80 -111 154 0
-27 49 112 154 0
6 71 -117 154 0
-27 80 -117 154 0
4 51 82 -155 0
-19 -78 -92 -155 0
-40 78 -95 -155 0
-6 55 110 -155 0
27 41 -116 -155 0
36 -79 117 -155 0
-7 43 -81 155 0
37 55 -81 155 0
-40 -54 88 155 0
8 45 -93 155 0
-17 -54 -103 155 0
29 -80 106 155 0
-6 -63 -108 155 0
32 -55 115 155 0
-16 61 120 155 0
-37 57 84 -156 0
-25 -68 84 -156 0
36 -61 -94 -156 0
-35 -65 100 -156 0
-37 59 -101 -156 0
3 46 108 -156 0
6 -55 -109 -156 0
-27 61 114 -156 0
1 -73 -116 -156 0
33 78 116 -156 0
40 70 85 156 0
-20 -64 89 156 0
-40 -46 -92 156 0
10 80 -93 156 0
8 -76 101 156 0
20 75 -84 -157 0
38 -73 -87 -157 0
20 -51 90 -157 0
31 65 93 -157 0
-27 -68 -94 -157 0
40 52 -101 -157 0
-11 -67 -101 -157 0
-31 -48 105 -157 0
25 -66 -108 -157 0
-16 73 110 -157 0
14 -68 116 -157 0
39 77 -117 -157 0
31 75 98 157 0
-38 -74 82 -158 0
38 -55 83 -158 0
13 76 -92 -158 0
36 -73 -96 -158 0
31 58 -100 -158 0
35 -55 100 -158 0
-18 71 -104 -158 0
8 -80 -111 -158 0
11 -58 111 -158 0
-21 -59 114 -158 0
10 47 -87 158 0
-15 -80 -94 158 0
-17 60 96 158 0
-3 75 100 158 0
-28 79 -105 158 0
-18 41 110 158 0
9 77 -113 158 0
40 -51 -117 158 0
-29 -76 -119 158 0
4 -48 -84 -159 0
35 -64 -92 -159 0
25 -72 -92 -159 0
15 -48 -95 -159 0
12 -79 107 -159 0
9 45 -108 -159 0
-9 52 -111 -159 0
3 -65 119 -159 0
-11 74 -87 159 0
27 46 98 159 0
-9 -78 -104 159 0
-2 80 -104 159 0
16 -63 -108 159 0
-30 -51 -113 159 0
27 74 114 159 0
-11 48 -116 159 0
24 44 81 -160 0
-26 -77 84 -160 0
21 64 88 -160 0
22 -59 91 -160 0
-25 54 99 -160 0
-39 70 99 -160 0
-6 47 100 -160 0
-26 -63 -101 -160 0
-39 -68 -112 -160 0
40 -45 -113 -160 0
-32 -49 -116 -160 0
40 56 -119 -160 0
-17 -54 -120 -160 0
32 53 -85 160 0
28 -75 -87 160 0
-1 80 -91 160 0
-18 62 91 160 0
22 55 94 160 0
16 -51 104 160 0
-6 55 117 160 0
